\ This file has been generated by DOcplex
\ ENCODING=ISO-8859-1
\Problem name: docplex_cutter

Minimize
 obj: num_cuts
Subject To
 cons_vertex_0: bin_sc_0_vx_0 + bin_sc_1_vx_0 + bin_sc_2_vx_0 = 1
 cons_vertex_1: bin_sc_0_vx_1 + bin_sc_1_vx_1 + bin_sc_2_vx_1 = 1
 cons_vertex_2: bin_sc_0_vx_2 + bin_sc_1_vx_2 + bin_sc_2_vx_2 = 1
 cons_vertex_3: bin_sc_0_vx_3 + bin_sc_1_vx_3 + bin_sc_2_vx_3 = 1
 cons_edge_0_1: - bin_sc_0_vx_0 - bin_sc_0_vx_1 + bin_sc_0_edg_0 <= 0
 cons_edge_0_2: - bin_sc_0_vx_0 + bin_sc_0_vx_1 + bin_sc_0_edg_0 >= 0
 cons_edge_0_3: bin_sc_0_vx_0 - bin_sc_0_vx_1 + bin_sc_0_edg_0 >= 0
 cons_edge_0_4: bin_sc_0_vx_0 + bin_sc_0_vx_1 + bin_sc_0_edg_0 <= 2
 cons_edge_1_1: - bin_sc_0_vx_1 - bin_sc_0_vx_2 + bin_sc_0_edg_1 <= 0
 cons_edge_1_2: - bin_sc_0_vx_1 + bin_sc_0_vx_2 + bin_sc_0_edg_1 >= 0
 cons_edge_1_3: bin_sc_0_vx_1 - bin_sc_0_vx_2 + bin_sc_0_edg_1 >= 0
 cons_edge_1_4: bin_sc_0_vx_1 + bin_sc_0_vx_2 + bin_sc_0_edg_1 <= 2
 cons_edge_2_1: - bin_sc_0_vx_2 - bin_sc_0_vx_3 + bin_sc_0_edg_2 <= 0
 cons_edge_2_2: - bin_sc_0_vx_2 + bin_sc_0_vx_3 + bin_sc_0_edg_2 >= 0
 cons_edge_2_3: bin_sc_0_vx_2 - bin_sc_0_vx_3 + bin_sc_0_edg_2 >= 0
 cons_edge_2_4: bin_sc_0_vx_2 + bin_sc_0_vx_3 + bin_sc_0_edg_2 <= 2
 cons_edge_0_1#16: - bin_sc_1_vx_0 - bin_sc_1_vx_1 + bin_sc_1_edg_0 <= 0
 cons_edge_0_2#17: - bin_sc_1_vx_0 + bin_sc_1_vx_1 + bin_sc_1_edg_0 >= 0
 cons_edge_0_3#18: bin_sc_1_vx_0 - bin_sc_1_vx_1 + bin_sc_1_edg_0 >= 0
 cons_edge_0_4#19: bin_sc_1_vx_0 + bin_sc_1_vx_1 + bin_sc_1_edg_0 <= 2
 cons_edge_1_1#20: - bin_sc_1_vx_1 - bin_sc_1_vx_2 + bin_sc_1_edg_1 <= 0
 cons_edge_1_2#21: - bin_sc_1_vx_1 + bin_sc_1_vx_2 + bin_sc_1_edg_1 >= 0
 cons_edge_1_3#22: bin_sc_1_vx_1 - bin_sc_1_vx_2 + bin_sc_1_edg_1 >= 0
 cons_edge_1_4#23: bin_sc_1_vx_1 + bin_sc_1_vx_2 + bin_sc_1_edg_1 <= 2
 cons_edge_2_1#24: - bin_sc_1_vx_2 - bin_sc_1_vx_3 + bin_sc_1_edg_2 <= 0
 cons_edge_2_2#25: - bin_sc_1_vx_2 + bin_sc_1_vx_3 + bin_sc_1_edg_2 >= 0
 cons_edge_2_3#26: bin_sc_1_vx_2 - bin_sc_1_vx_3 + bin_sc_1_edg_2 >= 0
 cons_edge_2_4#27: bin_sc_1_vx_2 + bin_sc_1_vx_3 + bin_sc_1_edg_2 <= 2
 cons_edge_0_1#28: - bin_sc_2_vx_0 - bin_sc_2_vx_1 + bin_sc_2_edg_0 <= 0
 cons_edge_0_2#29: - bin_sc_2_vx_0 + bin_sc_2_vx_1 + bin_sc_2_edg_0 >= 0
 cons_edge_0_3#30: bin_sc_2_vx_0 - bin_sc_2_vx_1 + bin_sc_2_edg_0 >= 0
 cons_edge_0_4#31: bin_sc_2_vx_0 + bin_sc_2_vx_1 + bin_sc_2_edg_0 <= 2
 cons_edge_1_1#32: - bin_sc_2_vx_1 - bin_sc_2_vx_2 + bin_sc_2_edg_1 <= 0
 cons_edge_1_2#33: - bin_sc_2_vx_1 + bin_sc_2_vx_2 + bin_sc_2_edg_1 >= 0
 cons_edge_1_3#34: bin_sc_2_vx_1 - bin_sc_2_vx_2 + bin_sc_2_edg_1 >= 0
 cons_edge_1_4#35: bin_sc_2_vx_1 + bin_sc_2_vx_2 + bin_sc_2_edg_1 <= 2
 cons_edge_2_1#36: - bin_sc_2_vx_2 - bin_sc_2_vx_3 + bin_sc_2_edg_2 <= 0
 cons_edge_2_2#37: - bin_sc_2_vx_2 + bin_sc_2_vx_3 + bin_sc_2_edg_2 >= 0
 cons_edge_2_3#38: bin_sc_2_vx_2 - bin_sc_2_vx_3 + bin_sc_2_edg_2 >= 0
 cons_edge_2_4#39: bin_sc_2_vx_2 + bin_sc_2_vx_3 + bin_sc_2_edg_2 <= 2
 cons_symm_0: bin_sc_0_vx_0 = 1
 cons_symm_1: bin_sc_0_vx_1 + bin_sc_1_vx_1 = 1
 cons_symm_2: bin_sc_0_vx_2 + bin_sc_1_vx_2 + bin_sc_2_vx_2 = 1
 c44: num_cuts - 0.500000000000 bin_sc_0_edg_0 - 0.500000000000 bin_sc_0_edg_1
      - 0.500000000000 bin_sc_0_edg_2 - 0.500000000000 bin_sc_1_edg_0
      - 0.500000000000 bin_sc_1_edg_1 - 0.500000000000 bin_sc_1_edg_2
      - 0.500000000000 bin_sc_2_edg_0 - 0.500000000000 bin_sc_2_edg_1
      - 0.500000000000 bin_sc_2_edg_2 = 0
 cons_subcircuit_input_0: - 2 bin_sc_0_vx_0 - bin_sc_0_vx_1 - bin_sc_0_vx_2
                          - bin_sc_0_vx_3 + original_input_0 = 0
 c46: _and54 - bin_sc_0_edg_0 <= 0
 c47: _and54 - bin_sc_0_vx_1 <= 0
 c48: _and54 - bin_sc_0_vx_1 - bin_sc_0_edg_0 >= -1
 cons_edge_var_downstream_vertex_var_0_0:
                                          bin_edge_var_downstream_vertex_var_product_0_0
                                          - _and54 = 0
 c50: _and55 - bin_sc_0_edg_1 <= 0
 c51: _and55 - bin_sc_0_vx_2 <= 0
 c52: _and55 - bin_sc_0_vx_2 - bin_sc_0_edg_1 >= -1
 cons_edge_var_downstream_vertex_var_0_1:
                                          bin_edge_var_downstream_vertex_var_product_0_1
                                          - _and55 = 0
 c54: _and56 - bin_sc_0_edg_2 <= 0
 c55: _and56 - bin_sc_0_vx_3 <= 0
 c56: _and56 - bin_sc_0_vx_3 - bin_sc_0_edg_2 >= -1
 cons_edge_var_downstream_vertex_var_0_2:
                                          bin_edge_var_downstream_vertex_var_product_0_2
                                          - _and56 = 0
 cons_subcircuit_rho_qubits_0: rho_0
                               - bin_edge_var_downstream_vertex_var_product_0_0
                               - bin_edge_var_downstream_vertex_var_product_0_1
                               - bin_edge_var_downstream_vertex_var_product_0_2
                                = 0
 c59: _and57 - bin_sc_0_edg_0 <= 0
 c60: _and57 - bin_sc_0_vx_0 <= 0
 c61: _and57 - bin_sc_0_vx_0 - bin_sc_0_edg_0 >= -1
 cons_edge_var_upstream_vertex_var_0_0:
                                        bin_edge_var_upstream_vertex_var_product_0_0
                                        - _and57 = 0
 c63: _and58 - bin_sc_0_edg_1 <= 0
 c64: _and58 - bin_sc_0_vx_1 <= 0
 c65: _and58 - bin_sc_0_vx_1 - bin_sc_0_edg_1 >= -1
 cons_edge_var_upstream_vertex_var_0_1:
                                        bin_edge_var_upstream_vertex_var_product_0_1
                                        - _and58 = 0
 c67: _and59 - bin_sc_0_edg_2 <= 0
 c68: _and59 - bin_sc_0_vx_2 <= 0
 c69: _and59 - bin_sc_0_vx_2 - bin_sc_0_edg_2 >= -1
 cons_edge_var_upstream_vertex_var_0_2:
                                        bin_edge_var_upstream_vertex_var_product_0_2
                                        - _and59 = 0
 cons_subcircuit_O_qubits_0: O_0 - bin_edge_var_upstream_vertex_var_product_0_0
                             - bin_edge_var_upstream_vertex_var_product_0_1
                             - bin_edge_var_upstream_vertex_var_product_0_2 = 0
 cons_subcircuit_d_qubits_0: - original_input_0 - rho_0 + d_0 = 0
 cons_subcircuit_input_1: - 2 bin_sc_1_vx_0 - bin_sc_1_vx_1 - bin_sc_1_vx_2
                          - bin_sc_1_vx_3 + original_input_1 = 0
 c74: _and60 - bin_sc_1_edg_0 <= 0
 c75: _and60 - bin_sc_1_vx_1 <= 0
 c76: _and60 - bin_sc_1_vx_1 - bin_sc_1_edg_0 >= -1
 cons_edge_var_downstream_vertex_var_1_0:
                                          bin_edge_var_downstream_vertex_var_product_1_0
                                          - _and60 = 0
 c78: _and61 - bin_sc_1_edg_1 <= 0
 c79: _and61 - bin_sc_1_vx_2 <= 0
 c80: _and61 - bin_sc_1_vx_2 - bin_sc_1_edg_1 >= -1
 cons_edge_var_downstream_vertex_var_1_1:
                                          bin_edge_var_downstream_vertex_var_product_1_1
                                          - _and61 = 0
 c82: _and62 - bin_sc_1_edg_2 <= 0
 c83: _and62 - bin_sc_1_vx_3 <= 0
 c84: _and62 - bin_sc_1_vx_3 - bin_sc_1_edg_2 >= -1
 cons_edge_var_downstream_vertex_var_1_2:
                                          bin_edge_var_downstream_vertex_var_product_1_2
                                          - _and62 = 0
 cons_subcircuit_rho_qubits_1: rho_1
                               - bin_edge_var_downstream_vertex_var_product_1_0
                               - bin_edge_var_downstream_vertex_var_product_1_1
                               - bin_edge_var_downstream_vertex_var_product_1_2
                                = 0
 c87: _and63 - bin_sc_1_edg_0 <= 0
 c88: _and63 - bin_sc_1_vx_0 <= 0
 c89: _and63 - bin_sc_1_vx_0 - bin_sc_1_edg_0 >= -1
 cons_edge_var_upstream_vertex_var_1_0:
                                        bin_edge_var_upstream_vertex_var_product_1_0
                                        - _and63 = 0
 c91: _and64 - bin_sc_1_edg_1 <= 0
 c92: _and64 - bin_sc_1_vx_1 <= 0
 c93: _and64 - bin_sc_1_vx_1 - bin_sc_1_edg_1 >= -1
 cons_edge_var_upstream_vertex_var_1_1:
                                        bin_edge_var_upstream_vertex_var_product_1_1
                                        - _and64 = 0
 c95: _and65 - bin_sc_1_edg_2 <= 0
 c96: _and65 - bin_sc_1_vx_2 <= 0
 c97: _and65 - bin_sc_1_vx_2 - bin_sc_1_edg_2 >= -1
 cons_edge_var_upstream_vertex_var_1_2:
                                        bin_edge_var_upstream_vertex_var_product_1_2
                                        - _and65 = 0
 cons_subcircuit_O_qubits_1: O_1 - bin_edge_var_upstream_vertex_var_product_1_0
                             - bin_edge_var_upstream_vertex_var_product_1_1
                             - bin_edge_var_upstream_vertex_var_product_1_2 = 0
 cons_subcircuit_d_qubits_1: - original_input_1 - rho_1 + d_1 = 0
 cons_build_cost_exponent_1: - 2 num_cuts + O_0 - d_0 + O_1 - d_1
                             + build_cost_exponent_1 = 0
 cons_subcircuit_input_2: - 2 bin_sc_2_vx_0 - bin_sc_2_vx_1 - bin_sc_2_vx_2
                          - bin_sc_2_vx_3 + original_input_2 = 0
 c103: _and66 - bin_sc_2_edg_0 <= 0
 c104: _and66 - bin_sc_2_vx_1 <= 0
 c105: _and66 - bin_sc_2_vx_1 - bin_sc_2_edg_0 >= -1
 cons_edge_var_downstream_vertex_var_2_0:
                                          bin_edge_var_downstream_vertex_var_product_2_0
                                          - _and66 = 0
 c107: _and67 - bin_sc_2_edg_1 <= 0
 c108: _and67 - bin_sc_2_vx_2 <= 0
 c109: _and67 - bin_sc_2_vx_2 - bin_sc_2_edg_1 >= -1
 cons_edge_var_downstream_vertex_var_2_1:
                                          bin_edge_var_downstream_vertex_var_product_2_1
                                          - _and67 = 0
 c111: _and68 - bin_sc_2_edg_2 <= 0
 c112: _and68 - bin_sc_2_vx_3 <= 0
 c113: _and68 - bin_sc_2_vx_3 - bin_sc_2_edg_2 >= -1
 cons_edge_var_downstream_vertex_var_2_2:
                                          bin_edge_var_downstream_vertex_var_product_2_2
                                          - _and68 = 0
 cons_subcircuit_rho_qubits_2: rho_2
                               - bin_edge_var_downstream_vertex_var_product_2_0
                               - bin_edge_var_downstream_vertex_var_product_2_1
                               - bin_edge_var_downstream_vertex_var_product_2_2
                                = 0
 c116: _and69 - bin_sc_2_edg_0 <= 0
 c117: _and69 - bin_sc_2_vx_0 <= 0
 c118: _and69 - bin_sc_2_vx_0 - bin_sc_2_edg_0 >= -1
 cons_edge_var_upstream_vertex_var_2_0:
                                        bin_edge_var_upstream_vertex_var_product_2_0
                                        - _and69 = 0
 c120: _and70 - bin_sc_2_edg_1 <= 0
 c121: _and70 - bin_sc_2_vx_1 <= 0
 c122: _and70 - bin_sc_2_vx_1 - bin_sc_2_edg_1 >= -1
 cons_edge_var_upstream_vertex_var_2_1:
                                        bin_edge_var_upstream_vertex_var_product_2_1
                                        - _and70 = 0
 c124: _and71 - bin_sc_2_edg_2 <= 0
 c125: _and71 - bin_sc_2_vx_2 <= 0
 c126: _and71 - bin_sc_2_vx_2 - bin_sc_2_edg_2 >= -1
 cons_edge_var_upstream_vertex_var_2_2:
                                        bin_edge_var_upstream_vertex_var_product_2_2
                                        - _and71 = 0
 cons_subcircuit_O_qubits_2: O_2 - bin_edge_var_upstream_vertex_var_product_2_0
                             - bin_edge_var_upstream_vertex_var_product_2_1
                             - bin_edge_var_upstream_vertex_var_product_2_2 = 0
 cons_subcircuit_d_qubits_2: - original_input_2 - rho_2 + d_2 = 0
 cons_build_cost_exponent_2: - 2 num_cuts + O_0 - d_0 + O_1 - d_1 + O_2 - d_2
                             + build_cost_exponent_2 = 0

Bounds
 0 <= bin_sc_0_vx_0 <= 1
 0 <= bin_sc_0_vx_1 <= 1
 0 <= bin_sc_0_vx_2 <= 1
 0 <= bin_sc_0_vx_3 <= 1
 0 <= bin_sc_1_vx_0 <= 1
 0 <= bin_sc_1_vx_1 <= 1
 0 <= bin_sc_1_vx_2 <= 1
 0 <= bin_sc_1_vx_3 <= 1
 0 <= bin_sc_2_vx_0 <= 1
 0 <= bin_sc_2_vx_1 <= 1
 0 <= bin_sc_2_vx_2 <= 1
 0 <= bin_sc_2_vx_3 <= 1
 0 <= bin_sc_0_edg_0 <= 1
 0 <= bin_sc_0_edg_1 <= 1
 0 <= bin_sc_0_edg_2 <= 1
 0 <= bin_sc_1_edg_0 <= 1
 0 <= bin_sc_1_edg_1 <= 1
 0 <= bin_sc_1_edg_2 <= 1
 0 <= bin_sc_2_edg_0 <= 1
 0 <= bin_sc_2_edg_1 <= 1
 0 <= bin_sc_2_edg_2 <= 1
       num_cuts <= 5.100000000000
       original_input_0 <= 4
       rho_0 <= 4
       O_0 <= 4
 0.100000000000 <= d_0 <= 4
 0 <= bin_edge_var_downstream_vertex_var_product_0_0 <= 1
 0 <= bin_edge_var_upstream_vertex_var_product_0_0 <= 1
 0 <= bin_edge_var_downstream_vertex_var_product_0_1 <= 1
 0 <= bin_edge_var_upstream_vertex_var_product_0_1 <= 1
 0 <= bin_edge_var_downstream_vertex_var_product_0_2 <= 1
 0 <= bin_edge_var_upstream_vertex_var_product_0_2 <= 1
       original_input_1 <= 4
       rho_1 <= 4
       O_1 <= 4
 0.100000000000 <= d_1 <= 4
 0 <= bin_edge_var_downstream_vertex_var_product_1_0 <= 1
 0 <= bin_edge_var_upstream_vertex_var_product_1_0 <= 1
 0 <= bin_edge_var_downstream_vertex_var_product_1_1 <= 1
 0 <= bin_edge_var_upstream_vertex_var_product_1_1 <= 1
 0 <= bin_edge_var_downstream_vertex_var_product_1_2 <= 1
 0 <= bin_edge_var_upstream_vertex_var_product_1_2 <= 1
       build_cost_exponent_1 <= 16
       original_input_2 <= 4
       rho_2 <= 4
       O_2 <= 4
 0.100000000000 <= d_2 <= 4
 0 <= bin_edge_var_downstream_vertex_var_product_2_0 <= 1
 0 <= bin_edge_var_upstream_vertex_var_product_2_0 <= 1
 0 <= bin_edge_var_downstream_vertex_var_product_2_1 <= 1
 0 <= bin_edge_var_upstream_vertex_var_product_2_1 <= 1
 0 <= bin_edge_var_downstream_vertex_var_product_2_2 <= 1
 0 <= bin_edge_var_upstream_vertex_var_product_2_2 <= 1
       build_cost_exponent_2 <= 16
 0 <= _and54 <= 1
 0 <= _and55 <= 1
 0 <= _and56 <= 1
 0 <= _and57 <= 1
 0 <= _and58 <= 1
 0 <= _and59 <= 1
 0 <= _and60 <= 1
 0 <= _and61 <= 1
 0 <= _and62 <= 1
 0 <= _and63 <= 1
 0 <= _and64 <= 1
 0 <= _and65 <= 1
 0 <= _and66 <= 1
 0 <= _and67 <= 1
 0 <= _and68 <= 1
 0 <= _and69 <= 1
 0 <= _and70 <= 1
 0 <= _and71 <= 1

Binaries
 bin_sc_0_vx_0 bin_sc_0_vx_1 bin_sc_0_vx_2 bin_sc_0_vx_3 bin_sc_1_vx_0
 bin_sc_1_vx_1 bin_sc_1_vx_2 bin_sc_1_vx_3 bin_sc_2_vx_0 bin_sc_2_vx_1
 bin_sc_2_vx_2 bin_sc_2_vx_3 bin_sc_0_edg_0 bin_sc_0_edg_1 bin_sc_0_edg_2
 bin_sc_1_edg_0 bin_sc_1_edg_1 bin_sc_1_edg_2 bin_sc_2_edg_0 bin_sc_2_edg_1
 bin_sc_2_edg_2 bin_edge_var_downstream_vertex_var_product_0_0
 bin_edge_var_upstream_vertex_var_product_0_0
 bin_edge_var_downstream_vertex_var_product_0_1
 bin_edge_var_upstream_vertex_var_product_0_1
 bin_edge_var_downstream_vertex_var_product_0_2
 bin_edge_var_upstream_vertex_var_product_0_2
 bin_edge_var_downstream_vertex_var_product_1_0
 bin_edge_var_upstream_vertex_var_product_1_0
 bin_edge_var_downstream_vertex_var_product_1_1
 bin_edge_var_upstream_vertex_var_product_1_1
 bin_edge_var_downstream_vertex_var_product_1_2
 bin_edge_var_upstream_vertex_var_product_1_2
 bin_edge_var_downstream_vertex_var_product_2_0
 bin_edge_var_upstream_vertex_var_product_2_0
 bin_edge_var_downstream_vertex_var_product_2_1
 bin_edge_var_upstream_vertex_var_product_2_1
 bin_edge_var_downstream_vertex_var_product_2_2
 bin_edge_var_upstream_vertex_var_product_2_2 _and54 _and55 _and56 _and57 _and58
 _and59 _and60 _and61 _and62 _and63 _and64 _and65 _and66 _and67 _and68 _and69
 _and70 _and71

Generals
 num_cuts original_input_0 rho_0 O_0 d_0 original_input_1 rho_1 O_1 d_1
 build_cost_exponent_1 original_input_2 rho_2 O_2 d_2 build_cost_exponent_2
End
